param set_len = 26;
param target := 3560013254;
param values := [1] 244094077 [2] 182718840 [3] 110084240 [4] 465735641 [5] 379316096 [6] 515253322 [7] 284487554 [8] 220008962 [9] 492801374 [10] 510202346 [11] 372849600 [12] 342398697 [13] 506103016 [14] 515707649 [15] 371585093 [16] 399030066 [17] 308239015 [18] 291723386 [19] 126072605 [20] 35642846 [21] 387143350 [22] 221450209 [23] 41014477 [24] 112644444 [25] 286435141 [26] 295342723 ;
